instances/p2/p2_4_13-3.dzn
Alphabet = {A,C,G,T};
ns = 4;
nc = 11;
neighbours = [| I(A),I(C),I(T),I(A),I(C),I(G),I(G),I(C),I(C),I(C),I(C) | I(G),I(T),I(A),I(A),I(A),I(G),I(A),I(G),I(C),I(A),Null | I(G),I(G),I(C),I(C),I(G),I(C),Null,Null,Null,Null,Null | I(C),I(C),I(A),I(T),I(T),I(G),I(G),I(G),I(G),I(G),I(T) |];
