instances/p2/p2_4_13-3.txt
{
	"num_strings": 4,
	"alphabet": "ACGT",
	"strings": [
		"ACTACGGCCCC",
		"GTAAAGAGCA",
		"GGCCGC",
		"CCATTGGGGGT"
	],
	"str_length":[11,10,6,11]
}